20	5
0	5	5	2	1	3	4
1	2	6	14
2	3	15	6	14
3	3	11	6	18
4	1	12
5	2	13	15
6	3	20	16	8
7	1	9
8	1	9
9	1	10
10	1	21
11	2	16	8
12	0
13	3	20	11	18
14	3	20	18	11
15	1	11
16	1	7
17	3	6	13	14
18	2	8	16
19	1	21
20	1	21
21	0
0	0	0	0	0	0	0
1	4	1	0	0	2	0
2	2	2	5	5	1	1
3	6	2	4	0	3	2
4	6	1	0	1	3	3
5	2	5	5	0	4	2
6	1	0	5	0	1	0
7	9	4	0	1	0	1
8	5	5	1	2	4	5
9	9	0	5	5	5	0
10	7	1	1	5	5	5
11	9	3	0	4	4	3
12	2	0	3	0	1	5
13	5	1	4	1	5	4
14	2	4	2	5	4	1
15	1	5	2	3	5	2
16	6	4	0	3	0	0
17	2	5	0	0	2	3
18	6	5	5	0	2	3
19	6	2	4	1	2	0
20	5	0	1	0	5	2
21	0	0	0	0	0	0
9	10	6	9	8
